5,1,3,2,8,2,8,3,9,3,3,4,4,3,2,5,4,5;10,1,1,1,1,2,2,3,5,4,10,4,7,2,8,4,6,5,1,5;7,1,5,2,4,1,6,2,6,3,2,4,5,5,10,5,7,3,7,4,7,5;8,1,9,1,2,2,3,3,9,2,10,3,1,3,9,4,4,4,9,5,3,5;3,1,2,1,6,1,10,2,5,3,4,2,6,4,1,4,8,5;
